NAME : traveling-santa-2018-prime-paths.29732.tour
COMMENT : Length = 29732
COMMENT : Found by LKH [Keld Helsgaun] Sun Jun 12 19:59:41 2022
TYPE : TOUR
DIMENSION : 100
TOUR_SECTION
1
13
30
65
55
48
49
89
88
51
20
82
17
2
37
6
91
84
78
93
92
72
18
42
25
36
50
27
4
98
11
23
34
74
16
52
5
77
47
60
97
46
15
7
70
29
63
58
76
99
64
57
3
66
24
12
86
14
61
9
21
73
94
32
83
85
10
22
40
26
67
68
80
54
41
28
62
81
56
39
45
71
43
75
38
95
8
33
87
31
69
100
59
90
53
79
96
35
44
19
-1
EOF
